90	22	4	90	
10	10	10	10

0	0	0	0	0	0	4	1	2	3	4
1	1	3	7	9	9	3	8	14	19
2	6	3	6	7	7	4	11	13	19	20
3	5	8	1	2	8	2	5	7
4	4	10	7	5	4	2	6	7
5	4	9	5	2	2	1	6
6	6	9	9	2	2	3	8	9	19
7	3	9	5	2	1	4	10	13	14	19
8	10	9	1	3	1	3	10	13	20
9	10	2	2	5	5	3	10	13	14
10	2	10	3	10	10	1	11
11	10	4	4	9	1	1	12
12	8	9	2	3	6	2	15	16
13	6	3	2	8	9	2	15	16
14	7	1	4	1	2	3	15	16	20
15	7	6	6	1	7	2	17	18
16	9	10	2	9	2	2	17	18
17	7	10	1	8	3	1	21
18	9	2	7	6	1	1	21
19	10	4	7	9	8	1	21
20	5	1	1	2	2	1	21
21	0	0	0	0	0	0
